100
128
5
45
18
63
36
28
24
2
41
35
57
63
63
10
51
52
43
49
31
1
40
62
46
16
32
59
20
22
25
19
55
8
8
28
17
63
7
20
37
43
7
38
23
8
19
5
43
30
32
12
33
10
24
31
13
15
2
59
38
22
13
12
14
38
29
36
46
32
24
45
14
43
19
62
33
16
14
2
40
62
38
47
43
1
31
51
24
46
21
22
56
53
42
38
31
48
64
64
42
29